 39.00
 35.00
 42.00
 32.00
 30.00
 29.00
 21.00
 14.00
 10.00
  1.00
  2.00
  4.00
  3.00
  5.00
  6.00
  7.00
  9.00
  8.00
 41.00
 15.00
 13.00
 20.00
 23.00
 25.00
 26.00
 22.00
 24.00
 28.00
 27.00
 18.00
 19.00
 16.00
 12.00
 11.00
 17.00
 40.00
 31.00
 36.00
 34.00
 33.00
 43.00
 38.00
 44.00
 37.00
